NAME : tsp_38_sol.txt
COMMENT : OR-Tools Guided Local Search
TYPE : TOUR
DIMENSION : 50
COST : 5832
STATUS : ROUTING_SUCCESS
GAP : 0.00% (Reference Solution)
TOUR_SECTION
1
32
27
15
38
2
7
50
14
10
35
21
6
28
25
4
23
13
16
36
46
20
19
9
31
49
17
47
48
40
45
34
33
37
18
29
26
11
22
39
44
12
5
30
8
43
42
41
3
24
-1
